# timeStepSize = 0.1, modelTimeStep = 0.01

******************************************************************************
This program contains Ipopt, a library for large-scale nonlinear optimization.
 Ipopt is released as open source code under the Eclipse Public License (EPL).
         For more information visit http://projects.coin-or.org/Ipopt
******************************************************************************

This is Ipopt version 3.12.8, running with linear solver mumps.
NOTE: Other linear solvers might be more efficient (see Ipopt documentation).

Number of nonzeros in equality constraint Jacobian...:     1047
Number of nonzeros in inequality constraint Jacobian.:        0
Number of nonzeros in Lagrangian Hessian.............:        0

Total number of variables............................:      450
                     variables with only lower bounds:        0
                variables with lower and upper bounds:      450
                     variables with only upper bounds:        0
Total number of equality constraints.................:      312
Total number of inequality constraints...............:        0
        inequality constraints with only lower bounds:        0
   inequality constraints with lower and upper bounds:        0
        inequality constraints with only upper bounds:        0

iter    objective    inf_pr   inf_du lg(mu)  ||d||  lg(rg) alpha_du alpha_pr  ls
   0  0.0000000e+00 2.50e+03 0.00e+00   0.0 0.00e+00    -  0.00e+00 0.00e+00   0
   1  2.1559723e+03 6.25e+02 2.02e+02  -4.0 2.50e+01    -  7.92e-01 1.00e+00h  1
   2  1.0514165e+04 1.56e+02 1.05e+02   0.5 2.60e+01    -  8.89e-01 1.00e+00h  1
   3  1.8623926e+04 3.91e+01 3.24e+02  -0.1 1.65e+01    -  9.91e-01 1.00e+00h  1
   4  2.4405431e+04 9.77e+00 3.69e+02  -1.2 6.10e+00    -  1.00e+00 1.00e+00h  1
   5  2.7641093e+04 2.44e+00 3.20e+02  -2.7 3.26e+00    -  1.00e+00 1.00e+00h  1
   6  2.9349239e+04 6.10e-01 3.21e+02  -4.3 1.58e+00    -  1.00e+00 1.00e+00h  1
   7  3.0224347e+04 1.53e-01 3.15e+02  -5.9 8.00e-01    -  1.00e+00 1.00e+00h  1
   8  3.0667044e+04 3.81e-02 3.16e+02  -7.6 4.23e-01    -  1.00e+00 1.00e+00h  1
   9  3.0889622e+04 9.54e-03 3.15e+02  -9.2 2.18e-01    -  1.00e+00 1.00e+00h  1
iter    objective    inf_pr   inf_du lg(mu)  ||d||  lg(rg) alpha_du alpha_pr  ls
  10  3.1001225e+04 2.38e-03 3.15e+02 -11.0 1.11e-01    -  1.00e+00 1.00e+00h  1
  11  3.1057101e+04 5.96e-04 3.15e+02 -11.0 5.71e-02    -  1.00e+00 1.00e+00h  1
  12  3.1085056e+04 1.49e-04 3.15e+02 -11.0 2.91e-02    -  1.00e+00 1.00e+00h  1
  13  3.1099037e+04 3.73e-05 3.15e+02 -11.0 1.49e-02    -  1.00e+00 1.00e+00h  1
  14  3.1106028e+04 9.31e-06 3.15e+02 -11.0 7.57e-03    -  1.00e+00 1.00e+00h  1
  15  3.1109523e+04 2.33e-06 3.15e+02 -11.0 3.85e-03    -  1.00e+00 1.00e+00h  1
  16  3.1111271e+04 5.82e-07 3.15e+02 -11.0 1.96e-03    -  1.00e+00 1.00e+00h  1
  17  3.1112145e+04 1.90e-07 3.38e-01 -11.0 9.97e-04    -  1.00e+00 1.00e+00h  1
  18  3.1112582e+04 9.48e-08 3.37e-01 -11.0 5.04e-04    -  1.00e+00 1.00e+00h  1
  19  3.1112800e+04 5.27e-08 3.37e-01 -11.0 2.55e-04    -  1.00e+00 1.00e+00h  1
iter    objective    inf_pr   inf_du lg(mu)  ||d||  lg(rg) alpha_du alpha_pr  ls
  20  3.1112909e+04 3.33e-08 3.37e-01 -11.0 1.29e-04    -  1.00e+00 1.00e+00h  1
  21  3.1112964e+04 3.42e-08 3.37e-01 -11.0 6.51e-05    -  1.00e+00 1.00e+00h  1
  22  3.1112998e+04 1.92e-08 3.37e-01 -11.0 3.29e-05    -  1.00e+00 1.00e+00H  1
  23  3.1113011e+04 1.06e-08 3.37e-01 -11.0 1.25e-05    -  1.00e+00 1.00e+00H  1
  24  3.1113011e+04 4.16e-10 3.37e-01 -11.0 6.40e-08    -  1.00e+00 1.00e+00h  1
  25  3.1113012e+04 4.59e-10 3.37e-01 -11.0 5.27e-06    -  1.00e+00 1.00e+00H  1
  26  3.1113012e+04 4.53e-10 3.37e-01 -11.0 2.53e-05    -  1.00e+00 7.81e-03h  8
  27  3.1113012e+04 5.06e-10 3.37e-01 -11.0 2.74e-05    -  1.00e+00 3.91e-03h  9
  28r 3.1113012e+04 5.06e-10 9.99e+02  -9.3 0.00e+00    -  0.00e+00 4.77e-07R 22
  29r 3.1113012e+04 9.33e-11 3.65e-05  -9.3 3.65e-05    -  1.00e+00 9.90e-04f  1
iter    objective    inf_pr   inf_du lg(mu)  ||d||  lg(rg) alpha_du alpha_pr  ls
  30  3.1113012e+04 9.69e-12 3.37e-01 -11.0 5.01e-06    -  1.00e+00 1.00e+00H  1
  31  3.1113012e+04 9.29e-12 3.37e-01 -11.0 7.40e-05    -  1.00e+00 1.53e-05h 17
  32r 3.1113012e+04 9.29e-12 9.99e+02 -11.0 0.00e+00    -  0.00e+00 4.77e-07R 22
  33r 3.1113012e+04 2.51e-09 2.73e-04  -9.1 2.75e-04    -  1.00e+00 1.17e-03f  1
  34r 3.1113014e+04 8.75e-08 6.25e-03  -9.3 7.39e-06    -  6.71e-02 6.33e-01h  1
  35r 3.1113015e+04 7.39e-09 1.02e-03  -9.3 1.08e-06    -  1.00e+00 1.00e+00h  1
  36r 3.1113016e+04 3.38e-08 8.43e-04  -9.3 1.50e-06    -  1.00e+00 1.00e+00h  1
  37r 3.1113018e+04 1.43e-08 2.10e-04  -9.3 1.68e-06    -  1.00e+00 1.00e+00H  1
  38r 3.1113018e+04 7.87e-09 6.10e-05  -9.3 5.20e-07    -  1.00e+00 1.00e+00h  1
  39r 3.1113018e+04 1.43e-09 1.23e-05  -9.3 4.37e-07    -  1.00e+00 1.00e+00H  1
iter    objective    inf_pr   inf_du lg(mu)  ||d||  lg(rg) alpha_du alpha_pr  ls
  40r 3.1113018e+04 8.53e-10 4.90e-06  -9.3 2.52e-07    -  1.00e+00 1.00e+00H  1
  41r 3.1113018e+04 7.91e-10 2.18e-06  -9.3 1.72e-07    -  1.00e+00 1.00e+00H  1
  42r 3.1113018e+04 6.15e-09 3.11e-07  -9.3 8.69e-08    -  1.00e+00 1.00e+00h  1
  43r 3.1113018e+04 2.25e-09 9.11e-08  -9.3 6.84e-08    -  1.00e+00 1.00e+00H  1
  44r 3.1113018e+04 6.34e-09 2.01e-08  -9.3 3.89e-08    -  1.00e+00 1.00e+00h  1
  45r 3.1113018e+04 4.94e-09 4.57e-09  -9.3 2.98e-08    -  1.00e+00 1.00e+00h  1
  46r 3.1113018e+04 7.42e-09 1.14e-09 -10.0 2.99e-08    -  1.00e+00 1.00e+00h  1
  47r 3.1113018e+04 8.76e-09 2.92e-10 -10.0 8.04e-09    -  1.00e+00 1.00e+00h  1
  48r 3.1113018e+04 2.52e-09 1.30e-10 -10.0 1.52e-08    -  1.00e+00 1.00e+00h  1
  49r 3.1113018e+04 1.45e-09 1.78e-11 -10.0 6.86e-09    -  1.00e+00 1.00e+00h  1
iter    objective    inf_pr   inf_du lg(mu)  ||d||  lg(rg) alpha_du alpha_pr  ls
  50r 3.1113018e+04 2.43e-09 1.29e-10 -10.0 3.47e-07    -  1.00e+00 6.25e-02h  5
  51r 3.1113018e+04 2.52e-09 9.93e-11 -10.0 3.29e-07    -  1.00e+00 6.25e-02h  5
  52r 3.1113018e+04 2.52e-09 9.56e-11 -10.0 2.97e-07    -  1.00e+00 1.56e-02h  7
  53r 3.1113018e+04 4.86e-10 2.83e-08 -10.0 3.26e-09    -  1.00e+00 1.00e+00h  1
  54r 3.1113018e+04 4.46e-10 2.60e-10 -10.0 2.28e-10    -  1.00e+00 1.00e+00h  1
  55r 3.1113018e+04 4.96e-10 4.51e-11 -12.0 7.92e-10    -  1.00e+00 1.00e+00h  1
Restoration phase converged to a feasible point that is
unacceptable to the filter for the original problem.
Restoration phase in the restoration phase failed.

Number of Iterations....: 55

                                   (scaled)                 (unscaled)
Objective...............:   3.1113018490551705e+04    3.1113018490551705e+04
Dual infeasibility......:   9.9219550602273728e+01    9.9219550602273728e+01
Constraint violation....:   3.6661695901329949e-10    3.6661695901329949e-10
Complementarity.........:   5.0000000001032293e-12    5.0000000001032293e-12
Overall NLP error.......:   9.9219550602273728e+01    9.9219550602273728e+01


Number of objective function evaluations             = 178
Number of objective gradient evaluations             = 34
Number of equality constraint evaluations            = 178
Number of inequality constraint evaluations          = 0
Number of equality constraint Jacobian evaluations   = 59
Number of inequality constraint Jacobian evaluations = 0
Number of Lagrangian Hessian evaluations             = 0
Total CPU secs in IPOPT (w/o function evaluations)   =     13.059
Total CPU secs in NLP function evaluations           =   4357.577

EXIT: Restoration Failed!


Solution of the primal variables, x
x[0] = -6.774624e-10
x[1] = 4.640230e-10
x[2] = 6.503462e-10
x[3] = -2.373209e-10
x[4] = -8.970337e-11
x[5] = 3.483038e-10
x[6] = -7.571707e+00
x[7] = 1.524308e+01
x[8] = 2.284326e+01
x[9] = -4.997327e-02
x[10] = 1.006043e-01
x[11] = 1.507655e-01
x[12] = -8.328878e-01
x[13] = 1.676739e+00
x[14] = 2.512758e+00
x[15] = -6.921502e+00
x[16] = 1.395525e+01
x[17] = 2.090884e+01
x[18] = -1.872728e-01
x[19] = 3.771502e-01
x[20] = 5.651673e-01
x[21] = -1.594253e+00
x[22] = 3.211816e+00
x[23] = 4.812731e+00
x[24] = -6.285496e+00
x[25] = 1.267866e+01
x[26] = 1.899495e+01
x[27] = -4.041249e-01
x[28] = 8.141291e-01
x[29] = 1.219934e+00
x[30] = -2.285658e+00
x[31] = 4.606469e+00
x[32] = 6.902176e+00
x[33] = -5.660243e+00
x[34] = 1.141045e+01
x[35] = 1.709643e+01
x[36] = -6.929049e-01
x[37] = 1.396150e+00
x[38] = 2.092010e+00
x[39] = -2.908284e+00
x[40] = 5.861618e+00
x[41] = 8.782783e+00
x[42] = -5.042566e+00
x[43] = 1.014803e+01
x[44] = 1.520860e+01
x[45] = -1.046097e+00
x[46] = 2.107905e+00
x[47] = 3.158493e+00
x[48] = -3.462967e+00
x[49] = 6.977901e+00
x[50] = 1.045573e+01
x[51] = -4.429554e+00
x[52] = 8.889116e+00
x[53] = 1.332727e+01
x[54] = -1.456258e+00
x[55] = 2.934142e+00
x[56] = 4.396583e+00
x[57] = -3.950218e+00
x[58] = 7.955704e+00
x[59] = 1.192173e+01
x[60] = -3.818637e+00
x[61] = 7.631733e+00
x[62] = 1.144881e+01
x[63] = -1.915985e+00
x[64] = 3.859639e+00
x[65] = 5.783536e+00
x[66] = -4.370268e+00
x[67] = 8.795195e+00
x[68] = 1.318110e+01
x[69] = -3.207511e+00
x[70] = 6.374232e+00
x[71] = 9.570085e+00
x[72] = -2.417884e+00
x[73] = 4.869180e+00
x[74] = 7.296619e+00
x[75] = -4.723094e+00
x[76] = 9.496360e+00
x[77] = 1.423381e+01
x[78] = -2.594191e+00
x[79] = 5.115232e+00
x[80] = 7.688512e+00
x[81] = -2.954546e+00
x[82] = 5.947540e+00
x[83] = 8.913082e+00
x[84] = -5.008455e+00
x[85] = 1.005904e+01
x[86] = 1.507954e+01
x[87] = -1.977085e+00
x[88] = 3.853631e+00
x[89] = 5.801990e+00
x[90] = -3.518525e+00
x[91] = 7.079468e+00
x[92] = 1.061012e+01
x[93] = -5.225934e+00
x[94] = 1.048294e+01
x[95] = 1.571776e+01
x[96] = -1.354839e+00
x[97] = 2.588469e+00
x[98] = 3.908869e+00
x[99] = -4.102320e+00
x[100] = 8.249675e+00
x[101] = 1.236488e+01
x[102] = -5.374966e+00
x[103] = 1.076767e+01
x[104] = 1.614774e+01
x[105] = -7.280780e-01
x[106] = 1.319726e+00
x[107] = 2.008101e+00
x[108] = -4.698372e+00
x[109] = 9.442828e+00
x[110] = 1.415438e+01
x[111] = -5.455055e+00
x[112] = 1.091284e+01
x[113] = 1.636863e+01
x[114] = -9.226812e-02
x[115] = 4.616683e-02
x[116] = 9.922187e-02
x[117] = -5.299037e+00
x[118] = 1.064355e+01
x[119] = 1.595559e+01
x[120] = -5.465205e+00
x[121] = 1.091791e+01
x[122] = 1.637954e+01
x[123] = 5.506386e-01
x[124] = -1.230820e+00
x[125] = -1.818482e+00
x[126] = -5.896575e+00
x[127] = 1.183639e+01
x[128] = 1.774533e+01
x[129] = -5.404634e+00
x[130] = 1.078252e+01
x[131] = 1.617951e+01
x[132] = 1.199371e+00
x[133] = -2.512154e+00
x[134] = -3.743946e+00
x[135] = -6.483169e+00
x[136] = 1.300589e+01
x[137] = 1.950037e+01
x[138] = -5.272703e+00
x[139] = 1.050619e+01
x[140] = 1.576768e+01
x[141] = 1.854254e+00
x[142] = -3.796838e+00
x[143] = -5.676349e+00
x[144] = -7.050928e+00
x[145] = 1.413651e+01
x[146] = 2.119735e+01
x[147] = -5.068736e+00
x[148] = 1.008854e+01
x[149] = 1.514328e+01
x[150] = 2.514072e+00
x[151] = -5.083955e+00
x[152] = -7.613978e+00
x[153] = -7.591896e+00
x[154] = 1.521270e+01
x[155] = 2.281286e+01
x[156] = -4.792188e+00
x[157] = 9.529301e+00
x[158] = 1.430574e+01
x[159] = 3.177108e+00
x[160] = -6.372177e+00
x[161] = -9.554413e+00
x[162] = -8.098068e+00
x[163] = 1.621886e+01
x[164] = 2.432343e+01
x[165] = -4.442706e+00
x[166] = 8.828361e+00
x[167] = 1.325475e+01
x[168] = 3.840971e+00
x[169] = -7.659733e+00
x[170] = -1.149436e+01
x[171] = -8.561415e+00
x[172] = 1.713943e+01
x[173] = 2.570559e+01
x[174] = -4.020199e+00
x[175] = 7.985790e+00
x[176] = 1.199038e+01
x[177] = 4.502651e+00
x[178] = -8.944358e+00
x[179] = -1.342959e+01
x[180] = -8.973919e+00
x[181] = 1.795883e+01
x[182] = 2.693590e+01
x[183] = -3.524907e+00
x[184] = 7.001911e+00
x[185] = 1.051312e+01
x[186] = 5.158290e+00
x[187] = -1.022321e+01
x[188] = -1.535482e+01
x[189] = -9.327615e+00
x[190] = 1.866157e+01
x[191] = 2.799100e+01
x[192] = -2.957495e+00
x[193] = 5.877358e+00
x[194] = 8.824091e+00
x[195] = 5.803195e+00
x[196] = -1.149286e+01
x[197] = -1.726361e+01
x[198] = -9.614638e+00
x[199] = 1.923223e+01
x[200] = 2.884771e+01
x[201] = -2.319144e+00
x[202] = 4.613143e+00
x[203] = 6.925093e+00
x[204] = 6.431828e+00
x[205] = -1.274915e+01
x[206] = -1.914826e+01
x[207] = -9.827294e+00
x[208] = 1.965553e+01
x[209] = 2.948309e+01
x[210] = -1.611643e+00
x[211] = 3.210736e+00
x[212] = 4.818785e+00
x[213] = 7.037736e+00
x[214] = -1.398719e+01
x[215] = -2.099969e+01
x[216] = -9.958125e+00
x[217] = 1.991639e+01
x[218] = 2.987456e+01
x[219] = -8.374920e-01
x[220] = 1.672145e+00
x[221] = 2.508819e+00
x[222] = 7.613564e+00
x[223] = -1.520131e+01
x[224] = -2.280744e+01
x[225] = -1.000000e+01
x[226] = 2.000000e+01
x[227] = 3.000000e+01
x[228] = -5.431503e-10
x[229] = 6.822388e-10
x[230] = 8.953825e-10
x[231] = 4.960977e+01
x[232] = 1.664610e+01
x[233] = 1.408262e-01
x[234] = -9.672575e+00
x[235] = 2.010986e+01
x[236] = 3.000093e+01
x[237] = 5.457075e+00
x[238] = 1.831071e+00
x[239] = 1.549088e-02
x[240] = 4.533223e+01
x[241] = 1.512897e+01
x[242] = 2.407244e-02
x[243] = -8.773104e+00
x[244] = 2.041113e+01
x[245] = 3.000279e+01
x[246] = 1.044362e+01
x[247] = 3.495257e+00
x[248] = 1.813885e-02
x[249] = 4.103603e+01
x[250] = 1.364356e+01
x[251] = -4.500558e-02
x[252] = -7.353468e+00
x[253] = 2.088566e+01
x[254] = 3.000449e+01
x[255] = 1.495758e+01
x[256] = 4.996048e+00
x[257] = 1.318823e-02
x[258] = 3.672528e+01
x[259] = 1.218186e+01
x[260] = -7.707003e-02
x[261] = -5.465747e+00
x[262] = 2.151562e+01
x[263] = 3.000543e+01
x[264] = 1.899736e+01
x[265] = 6.336053e+00
x[266] = 4.710530e-03
x[267] = 3.240368e+01
x[268] = 1.073707e+01
x[269] = -8.265628e-02
x[270] = -3.162173e+00
x[271] = 2.228346e+01
x[272] = 3.000541e+01
x[273] = 2.256177e+01
x[274] = 7.517132e+00
x[275] = -4.381661e-03
x[276] = 2.807449e+01
x[277] = 9.303290e+00
x[278] = -7.073049e-02
x[279] = -4.950869e-01
x[280] = 2.317174e+01
x[281] = 3.000446e+01
x[282] = 2.564996e+01
x[283] = 8.540494e+00
x[284] = -1.216202e-02
x[285] = 2.374058e+01
x[286] = 7.875997e+00
x[287] = -4.811102e-02
x[288] = 2.483097e+00
x[289] = 2.416318e+01
x[290] = 3.000280e+01
x[291] = 2.826143e+01
x[292] = 9.406853e+00
x[293] = -1.745423e-02
x[294] = 1.940443e+01
x[295] = 6.451429e+00
x[296] = -2.169047e-02
x[297] = 5.719923e+00
x[298] = 2.524051e+01
x[299] = 3.000074e+01
x[300] = 3.039591e+01
x[301] = 1.011651e+01
x[302] = -1.984018e-02
x[303] = 1.506808e+01
x[304] = 5.026728e+00
x[305] = 5.565009e-03
x[306] = 9.162923e+00
x[307] = 2.638650e+01
x[308] = 2.999859e+01
x[309] = 3.205340e+01
x[310] = 1.066945e+01
x[311] = -1.922803e-02
x[312] = 1.073329e+01
x[313] = 3.599892e+00
x[314] = 2.822578e-02
x[315] = 1.275964e+01
x[316] = 2.758390e+01
x[317] = 2.999666e+01
x[318] = 3.323406e+01
x[319] = 1.106544e+01
x[320] = -1.612319e-02
x[321] = 6.401439e+00
x[322] = 2.169494e+00
x[323] = 4.541146e-02
x[324] = 1.645763e+01
x[325] = 2.881542e+01
x[326] = 2.999519e+01
x[327] = 3.393822e+01
x[328] = 1.130408e+01
x[329] = -1.112793e-02
x[330] = 2.073592e+00
x[331] = 7.348415e-01
x[332] = 5.576191e-02
x[333] = 2.020452e+01
x[334] = 3.006372e+01
x[335] = 2.999433e+01
x[336] = 3.416632e+01
x[337] = 1.138492e+01
x[338] = -4.994122e-03
x[339] = -2.249408e+00
x[340] = -7.042772e-01
x[341] = 5.828183e-02
x[342] = 2.394797e+01
x[343] = 3.131141e+01
x[344] = 2.999417e+01
x[345] = 3.391888e+01
x[346] = 1.130745e+01
x[347] = 1.416879e-03
x[348] = -6.567035e+00
x[349] = -2.147604e+00
x[350] = 5.315780e-02
x[351] = 2.763571e+01
x[352] = 3.254106e+01
x[353] = 2.999468e+01
x[354] = 3.319651e+01
x[355] = 1.107121e+01
x[356] = 7.264237e-03
x[357] = -1.087892e+01
x[358] = -3.594425e+00
x[359] = 4.040422e-02
x[360] = 3.121552e+01
x[361] = 3.373516e+01
x[362] = 2.999574e+01
x[363] = 3.199983e+01
x[364] = 1.067582e+01
x[365] = 1.170870e-02
x[366] = -1.518488e+01
x[367] = -5.043520e+00
x[368] = 2.354695e-02
x[369] = 3.463528e+01
x[370] = 3.487622e+01
x[371] = 2.999718e+01
x[372] = 3.032949e+01
x[373] = 1.012103e+01
x[374] = 1.429887e-02
x[375] = -1.948484e+01
x[376] = -6.493289e+00
x[377] = 2.664610e-03
x[378] = 3.784293e+01
x[379] = 3.594668e+01
x[380] = 2.999878e+01
x[381] = 2.818616e+01
x[382] = 9.406773e+00
x[383] = 1.459197e-02
x[384] = -2.377873e+01
x[385] = -7.941594e+00
x[386] = -1.944108e-02
x[387] = 4.078647e+01
x[388] = 3.692901e+01
x[389] = 3.000025e+01
x[390] = 2.557050e+01
x[391] = 8.533198e+00
x[392] = 1.245345e-02
x[393] = -2.806643e+01
x[394] = -9.385842e+00
x[395] = -3.924581e-02
x[396] = 4.341398e+01
x[397] = 3.780571e+01
x[398] = 3.000136e+01
x[399] = 2.248319e+01
x[400] = 7.500755e+00
x[401] = 8.136414e-03
x[402] = -3.234766e+01
x[403] = -1.082283e+01
x[404] = -5.189451e-02
x[405] = 4.567364e+01
x[406] = 3.855936e+01
x[407] = 3.000192e+01
x[408] = 1.892495e+01
x[409] = 6.310244e+00
x[410] = 2.428018e-03
x[411] = -3.662187e+01
x[412] = -1.224871e+01
x[413] = -5.331778e-02
x[414] = 4.751368e+01
x[415] = 3.917265e+01
x[416] = 3.000183e+01
x[417] = 1.489654e+01
x[418] = 4.962886e+00
x[419] = -3.436937e-03
x[420] = -4.088811e+01
x[421] = -1.365893e+01
x[422] = -3.739227e-02
x[423] = 4.888244e+01
x[424] = 3.962842e+01
x[425] = 3.000121e+01
x[426] = 1.039885e+01
x[427] = 3.460403e+00
x[428] = -7.550087e-03
x[429] = -4.514483e+01
x[430] = -1.504814e+01
x[431] = 1.948630e-04
x[432] = 4.972835e+01
x[433] = 3.990974e+01
x[434] = 3.000038e+01
x[435] = 5.432919e+00
x[436] = 1.805108e+00
x[437] = -7.528652e-03
x[438] = -4.939018e+01
x[439] = -1.641007e+01
x[440] = 6.844230e-02
x[441] = 5.000000e+01
x[442] = 4.000000e+01
x[443] = 3.000000e+01
x[444] = 7.901451e-10
x[445] = 7.010131e-10
x[446] = 8.673986e-10
x[447] = 0.000000e+00
x[448] = 0.000000e+00
x[449] = 0.000000e+00


Objective value
f(x*) = 3.111302e+04
11
sh: 1: gnuplot: not found

